num_offers = 20;
num_halls = 10;
start=[44,14,3,12,75,4,23,13,34,14,5,23,6,28,66,21,17,19,50,23];
end=[89,68,96,91,97,82,50,17,89,59,89,49,54,84,99,46,55,81,52,56];
price=[4183,1576,3546,2076,1577,4233,2755,81,3253,1353,7909,1783,2525,1523,392,2396,2589,871,146,3348];
requirement=[232,629,771,268,348,399,655,718,458,455,333,628,757,449,900,801,630,606,557,875];
capacity=[989,681,723,924,519,944,865,774,854,717];
